0 0 0 0
0 1 0 0
0 2 0 0
0 3 0 0
0 4 0 4
0 5 0 4
0 6 0 5
0 7 0 4
0 8 0 1
0 9 0 7
0 10 0 8
0 11 0 2
0 12 0 5
0 13 0 10
0 14 2 13
0 15 0 13
0 16 0 15
0 17 2 1
0 18 0 15
0 19 0 15
0 20 0 19
0 21 1 20
0 22 0 20
0 23 0 24
0 24 0 13
0 25 0 15
0 26 2 19
0 27 0 20
0 28 0 25
0 29 0 27
0 30 0 26
0 31 0 29
